491,32
281,202
356,457
804,237
786,261
769,392
474,438
482,470
448,639
570,748
718,169
576,261
523,188
947,448
1194,572
871,780
892,697
769,392
751,309
718,169
681,46
760,-97
975,257
831,406
600,566
575,512
474,438
300,25
491,32
732,81
839,188
727,702
945,770
871,780
620,791
600,566
709,397
672,465
892,697
1045,670
909,332
1041,406
1125,476
831,406
751,309
681,46
